JOBS = 8;
MACHINES = 8;

PROC_TIME = array2d(SET_JOBS, SET_POS, [2, 16, 14, 9, 9, 18, 2, 14, 5, 2, 11, 20, 15, 16, 15, 16, 11, 3, 17, 10, 11, 8, 4, 19, 16, 13, 9, 17, 11, 9, 10, 5, 2, 12, 18, 2, 18, 17, 6, 13, 4, 16, 15, 8, 2, 20, 9, 18, 14, 16, 16, 4, 8, 10, 10, 1, 11, 4, 15, 14, 19, 15, 8, 20]);
MACHINE_OF_OP = array2d(SET_JOBS, SET_POS, [6, 1, 5, 4, 7, 8, 2, 3, 4, 8, 5, 6, 2, 1, 7, 3, 5, 4, 1, 7, 6, 3, 2, 8, 2, 4, 1, 3, 5, 7, 6, 8, 3, 8, 4, 5, 2, 1, 7, 6, 1, 3, 5, 7, 8, 2, 4, 6, 5, 4, 3, 1, 2, 7, 6, 8, 1, 2, 8, 3, 4, 5, 6, 7]);
