JOBS = 10;
MACHINES = 10;

PROC_TIME = array2d(SET_JOBS, SET_POS, [2, 16, 14, 9, 9, 18, 2, 14, 5, 2, 11, 20, 15, 16, 15, 16, 11, 3, 17, 10, 11, 8, 4, 19, 16, 13, 9, 17, 11, 9, 10, 5, 2, 12, 18, 2, 18, 17, 6, 13, 4, 16, 15, 8, 2, 20, 9, 18, 14, 16, 16, 4, 8, 10, 10, 1, 11, 4, 15, 14, 19, 15, 8, 20, 9, 7, 19, 8, 2, 10, 16, 4, 10, 3, 14, 10, 7, 5, 12, 14, 19, 9, 4, 17, 13, 15, 2, 7, 16, 17, 9, 17, 17, 8, 18, 6, 5, 14, 13, 3]);
MACHINE_OF_OP = array2d(SET_JOBS, SET_POS, [1, 3, 5, 7, 10, 2, 4, 9, 8, 6, 7, 1, 3, 9, 4, 5, 2, 10, 6, 8, 1, 2, 9, 6, 3, 4, 5, 10, 8, 7, 6, 9, 10, 2, 8, 1, 5, 7, 3, 4, 3, 2, 5, 9, 8, 7, 6, 4, 1, 10, 5, 1, 9, 6, 8, 7, 3, 10, 2, 4, 10, 5, 7, 1, 4, 2, 8, 3, 9, 6, 7, 4, 8, 6, 10, 1, 9, 2, 3, 5, 7, 9, 5, 6, 10, 8, 4, 2, 3, 1, 9, 2, 7, 8, 4, 10, 5, 1, 3, 6]);
